HUN,8,6,883
2,28,5,27,0,21,1,29,4,29,3,26
5,26,4,25,3,28,1,27,0,23,2,25
1,25,5,26,2,24,4,27,0,30,3,25
1,30,5,30,0,30,3,28,2,28,4,29
3,25,2,24,0,30,4,22,1,29,5,23
0,28,4,21,5,24,2,29,3,29,1,23
2,27,5,28,4,29,3,23,0,25,1,22
0,25,2,28,1,22,4,23,3,30,5,23
